g3 1 1 0	# problem unknown
 120 10 1 10 0 	# vars, constraints, objectives, general inequalities, equalities  
 0 1 	# nonlinear constraints, objectives
 0 0	# network constraints: nonlinear, linear
 0 120 0 	# nonlinear vars in constraints, objectives, both
 0 0 0 1	# linear network variables; functions; arith, flags
 0 0 0 0 0 	# discrete variables: binary, integer, nonlinear (b,c,o)
 10 120 	# nonzeros in Jacobian, obj. gradient
 0 0	# max name lengths: constraints, variables
 0 0 0 0 0	# common exprs: b,c,o,c1,o1
C0
n0
C1
n0
C2
n0
C3
n0
C4
n0
C5
n0
C6
n0
C7
n0
C8
n0
C9
n0
O0 0
o54
337
o44
o2
v31
v42
o44
o2
n2.0
o2
v42
v53
o44
o2
n3.0
o2
v53
v64
o44
o2
n4.0
o2
v64
v75
o44
o2
n5.0
o2
v75
v86
o44
o2
n6.0
o2
v86
v97
o44
o2
n7.0
o2
v97
v108
o44
o2
n8.0
o2
v108
v119
o44
o2
n9.0
o2
v119
v10
o44
o2
n10.0
o2
v10
v21
o2
n4.0
o2
v21
v21
o2
n2.0
o2
v22
v22
o2
v21
v22
o2
n4.0
o2
v23
v23
o2
n2.0
o2
v22
v22
o2
v23
v22
o2
n4.0
o2
v24
v24
o2
n2.0
o2
v22
v22
o2
v24
v22
o2
n4.0
o2
v25
v25
o2
n2.0
o2
v22
v22
o2
v25
v22
o2
n4.0
o2
v26
v26
o2
n2.0
o2
v22
v22
o2
v26
v22
o2
n4.0
o2
v27
v27
o2
n2.0
o2
v22
v22
o2
v27
v22
o2
n4.0
o2
v28
v28
o2
n2.0
o2
v22
v22
o2
v28
v22
o2
n4.0
o2
v29
v29
o2
n2.0
o2
v22
v22
o2
v29
v22
o2
n4.0
o2
v30
v30
o2
n2.0
o2
v22
v22
o2
v30
v22
o2
n4.0
o2
v32
v32
o2
n2.0
o2
v22
v22
o2
v32
v22
o2
n4.0
o2
v33
v33
o2
n2.0
o2
v22
v22
o2
v33
v22
o2
n4.0
o2
v34
v34
o2
n2.0
o2
v22
v22
o2
v34
v22
o2
n4.0
o2
v35
v35
o2
n2.0
o2
v22
v22
o2
v35
v22
o2
n4.0
o2
v36
v36
o2
n2.0
o2
v22
v22
o2
v36
v22
o2
n4.0
o2
v37
v37
o2
n2.0
o2
v22
v22
o2
v37
v22
o2
n4.0
o2
v38
v38
o2
n2.0
o2
v22
v22
o2
v38
v22
o2
n4.0
o2
v39
v39
o2
n2.0
o2
v22
v22
o2
v39
v22
o2
n4.0
o2
v40
v40
o2
n2.0
o2
v22
v22
o2
v40
v22
o2
n4.0
o2
v41
v41
o2
n2.0
o2
v22
v22
o2
v41
v22
o2
n4.0
o2
v43
v43
o2
n2.0
o2
v22
v22
o2
v43
v22
o2
n4.0
o2
v44
v44
o2
n2.0
o2
v22
v22
o2
v44
v22
o2
n4.0
o2
v45
v45
o2
n2.0
o2
v22
v22
o2
v45
v22
o2
n4.0
o2
v46
v46
o2
n2.0
o2
v22
v22
o2
v46
v22
o2
n4.0
o2
v47
v47
o2
n2.0
o2
v22
v22
o2
v47
v22
o2
n4.0
o2
v48
v48
o2
n2.0
o2
v22
v22
o2
v48
v22
o2
n4.0
o2
v49
v49
o2
n2.0
o2
v22
v22
o2
v49
v22
o2
n4.0
o2
v50
v50
o2
n2.0
o2
v22
v22
o2
v50
v22
o2
n4.0
o2
v51
v51
o2
n2.0
o2
v22
v22
o2
v51
v22
o2
n4.0
o2
v52
v52
o2
n2.0
o2
v22
v22
o2
v52
v22
o2
n4.0
o2
v54
v54
o2
n2.0
o2
v22
v22
o2
v54
v22
o2
n4.0
o2
v55
v55
o2
n2.0
o2
v22
v22
o2
v55
v22
o2
n4.0
o2
v56
v56
o2
n2.0
o2
v22
v22
o2
v56
v22
o2
n4.0
o2
v57
v57
o2
n2.0
o2
v22
v22
o2
v57
v22
o2
n4.0
o2
v58
v58
o2
n2.0
o2
v22
v22
o2
v58
v22
o2
n4.0
o2
v59
v59
o2
n2.0
o2
v22
v22
o2
v59
v22
o2
n4.0
o2
v60
v60
o2
n2.0
o2
v22
v22
o2
v60
v22
o2
n4.0
o2
v61
v61
o2
n2.0
o2
v22
v22
o2
v61
v22
o2
n4.0
o2
v62
v62
o2
n2.0
o2
v22
v22
o2
v62
v22
o2
n4.0
o2
v63
v63
o2
n2.0
o2
v22
v22
o2
v63
v22
o2
n4.0
o2
v65
v65
o2
n2.0
o2
v22
v22
o2
v65
v22
o2
n4.0
o2
v66
v66
o2
n2.0
o2
v22
v22
o2
v66
v22
o2
n4.0
o2
v67
v67
o2
n2.0
o2
v22
v22
o2
v67
v22
o2
n4.0
o2
v68
v68
o2
n2.0
o2
v22
v22
o2
v68
v22
o2
n4.0
o2
v69
v69
o2
n2.0
o2
v22
v22
o2
v69
v22
o2
n4.0
o2
v70
v70
o2
n2.0
o2
v22
v22
o2
v70
v22
o2
n4.0
o2
v71
v71
o2
n2.0
o2
v22
v22
o2
v71
v22
o2
n4.0
o2
v72
v72
o2
n2.0
o2
v22
v22
o2
v72
v22
o2
n4.0
o2
v73
v73
o2
n2.0
o2
v22
v22
o2
v73
v22
o2
n4.0
o2
v74
v74
o2
n2.0
o2
v22
v22
o2
v74
v22
o2
n4.0
o2
v76
v76
o2
n2.0
o2
v22
v22
o2
v76
v22
o2
n4.0
o2
v77
v77
o2
n2.0
o2
v22
v22
o2
v77
v22
o2
n4.0
o2
v78
v78
o2
n2.0
o2
v22
v22
o2
v78
v22
o2
n4.0
o2
v79
v79
o2
n2.0
o2
v22
v22
o2
v79
v22
o2
n4.0
o2
v80
v80
o2
n2.0
o2
v22
v22
o2
v80
v22
o2
n4.0
o2
v81
v81
o2
n2.0
o2
v22
v22
o2
v81
v22
o2
n4.0
o2
v82
v82
o2
n2.0
o2
v22
v22
o2
v82
v22
o2
n4.0
o2
v83
v83
o2
n2.0
o2
v22
v22
o2
v83
v22
o2
n4.0
o2
v84
v84
o2
n2.0
o2
v22
v22
o2
v84
v22
o2
n4.0
o2
v85
v85
o2
n2.0
o2
v22
v22
o2
v85
v22
o2
n4.0
o2
v87
v87
o2
n2.0
o2
v22
v22
o2
v87
v22
o2
n4.0
o2
v88
v88
o2
n2.0
o2
v22
v22
o2
v88
v22
o2
n4.0
o2
v89
v89
o2
n2.0
o2
v22
v22
o2
v89
v22
o2
n4.0
o2
v90
v90
o2
n2.0
o2
v22
v22
o2
v90
v22
o2
n4.0
o2
v91
v91
o2
n2.0
o2
v22
v22
o2
v91
v22
o2
n4.0
o2
v92
v92
o2
n2.0
o2
v22
v22
o2
v92
v22
o2
n4.0
o2
v93
v93
o2
n2.0
o2
v22
v22
o2
v93
v22
o2
n4.0
o2
v94
v94
o2
n2.0
o2
v22
v22
o2
v94
v22
o2
n4.0
o2
v95
v95
o2
n2.0
o2
v22
v22
o2
v95
v22
o2
n4.0
o2
v96
v96
o2
n2.0
o2
v22
v22
o2
v96
v22
o2
n4.0
o2
v98
v98
o2
n2.0
o2
v22
v22
o2
v98
v22
o2
n4.0
o2
v99
v99
o2
n2.0
o2
v22
v22
o2
v99
v22
o2
n4.0
o2
v100
v100
o2
n2.0
o2
v22
v22
o2
v100
v22
o2
n4.0
o2
v101
v101
o2
n2.0
o2
v22
v22
o2
v101
v22
o2
n4.0
o2
v102
v102
o2
n2.0
o2
v22
v22
o2
v102
v22
o2
n4.0
o2
v103
v103
o2
n2.0
o2
v22
v22
o2
v103
v22
o2
n4.0
o2
v104
v104
o2
n2.0
o2
v22
v22
o2
v104
v22
o2
n4.0
o2
v105
v105
o2
n2.0
o2
v22
v22
o2
v105
v22
o2
n4.0
o2
v106
v106
o2
n2.0
o2
v22
v22
o2
v106
v22
o2
n4.0
o2
v107
v107
o2
n2.0
o2
v22
v22
o2
v107
v22
o2
n4.0
o2
v109
v109
o2
n2.0
o2
v22
v22
o2
v109
v22
o2
n4.0
o2
v110
v110
o2
n2.0
o2
v22
v22
o2
v110
v22
o2
n4.0
o2
v111
v111
o2
n2.0
o2
v22
v22
o2
v111
v22
o2
n4.0
o2
v112
v112
o2
n2.0
o2
v22
v22
o2
v112
v22
o2
n4.0
o2
v113
v113
o2
n2.0
o2
v22
v22
o2
v113
v22
o2
n4.0
o2
v114
v114
o2
n2.0
o2
v22
v22
o2
v114
v22
o2
n4.0
o2
v115
v115
o2
n2.0
o2
v22
v22
o2
v115
v22
o2
n4.0
o2
v116
v116
o2
n2.0
o2
v22
v22
o2
v116
v22
o2
n4.0
o2
v117
v117
o2
n2.0
o2
v22
v22
o2
v117
v22
o2
n4.0
o2
v118
v118
o2
n2.0
o2
v22
v22
o2
v118
v22
o2
n4.0
o2
v0
v0
o2
n2.0
o2
v22
v22
o2
v0
v22
o2
n4.0
o2
v1
v1
o2
n2.0
o2
v22
v22
o2
v1
v22
o2
n4.0
o2
v2
v2
o2
n2.0
o2
v22
v22
o2
v2
v22
o2
n4.0
o2
v3
v3
o2
n2.0
o2
v22
v22
o2
v3
v22
o2
n4.0
o2
v4
v4
o2
n2.0
o2
v22
v22
o2
v4
v22
o2
n4.0
o2
v5
v5
o2
n2.0
o2
v22
v22
o2
v5
v22
o2
n4.0
o2
v6
v6
o2
n2.0
o2
v22
v22
o2
v6
v22
o2
n4.0
o2
v7
v7
o2
n2.0
o2
v22
v22
o2
v7
v22
o2
n4.0
o2
v8
v8
o2
n2.0
o2
v22
v22
o2
v8
v22
o2
n4.0
o2
v9
v9
o2
n2.0
o2
v22
v22
o2
v9
v22
o2
n4.0
o2
v11
v11
o2
n2.0
o2
v22
v22
o2
v11
v22
o2
n4.0
o2
v12
v12
o2
n2.0
o2
v22
v22
o2
v12
v22
o2
n4.0
o2
v13
v13
o2
n2.0
o2
v22
v22
o2
v13
v22
o2
n4.0
o2
v14
v14
o2
n2.0
o2
v22
v22
o2
v14
v22
o2
n4.0
o2
v15
v15
o2
n2.0
o2
v22
v22
o2
v15
v22
o2
n4.0
o2
v16
v16
o2
n2.0
o2
v22
v22
o2
v16
v22
o2
n4.0
o2
v17
v17
o2
n2.0
o2
v22
v22
o2
v17
v22
o2
n4.0
o2
v18
v18
o2
n2.0
o2
v22
v22
o2
v18
v22
o2
n4.0
o2
v19
v19
o2
n2.0
o2
v22
v22
o2
v19
v22
o2
n4.0
o2
v20
v20
o2
n2.0
o2
v22
v22
o2
v20
v22
x120
0 0.0
1 0.0
2 0.0
3 0.0
4 0.0
5 0.0
6 0.0
7 0.0
8 0.0
9 0.0
10 0.0
11 0.0
12 0.0
13 0.0
14 0.0
15 0.0
16 0.0
17 0.0
18 0.0
19 0.0
20 0.0
21 0.0
22 0.0
23 0.0
24 0.0
25 0.0
26 0.0
27 0.0
28 0.0
29 0.0
30 0.0
31 0.0
32 0.0
33 0.0
34 0.0
35 0.0
36 0.0
37 0.0
38 0.0
39 0.0
40 0.0
41 0.0
42 0.0
43 0.0
44 0.0
45 0.0
46 0.0
47 0.0
48 0.0
49 0.0
50 0.0
51 0.0
52 0.0
53 0.0
54 0.0
55 0.0
56 0.0
57 0.0
58 0.0
59 0.0
60 0.0
61 0.0
62 0.0
63 0.0
64 0.0
65 0.0
66 0.0
67 0.0
68 0.0
69 0.0
70 0.0
71 0.0
72 0.0
73 0.0
74 0.0
75 0.0
76 0.0
77 0.0
78 0.0
79 0.0
80 0.0
81 0.0
82 0.0
83 0.0
84 0.0
85 0.0
86 0.0
87 0.0
88 0.0
89 0.0
90 0.0
91 0.0
92 0.0
93 0.0
94 0.0
95 0.0
96 0.0
97 0.0
98 0.0
99 0.0
100 0.0
101 0.0
102 0.0
103 0.0
104 0.0
105 0.0
106 0.0
107 0.0
108 0.0
109 0.0
110 0.0
111 0.0
112 0.0
113 0.0
114 0.0
115 0.0
116 0.0
117 0.0
118 0.0
119 0.0
r
0 0.0 10.0
0 0.0 10.0
0 0.0 10.0
0 0.0 10.0
0 0.0 10.0
0 0.0 10.0
0 0.0 10.0
0 0.0 10.0
0 0.0 10.0
0 0.0 10.0
b
3
3
3
3
3
3
3
3
3
3
3
3
3
3
3
3
3
3
3
3
3
3
3
3
3
3
3
3
3
3
3
3
3
3
3
3
3
3
3
3
3
3
3
3
3
3
3
3
3
3
3
3
3
3
3
3
3
3
3
3
3
3
3
3
3
3
3
3
3
3
3
3
3
3
3
3
3
3
3
3
3
3
3
3
3
3
3
3
3
3
3
3
3
3
3
3
3
3
3
3
3
3
3
3
3
3
3
3
3
3
3
3
3
3
3
3
3
3
3
3
k119
0
0
0
0
0
0
0
0
0
0
1
1
1
1
1
1
1
1
1
1
1
1
1
1
1
1
1
1
1
1
1
2
2
2
2
2
2
2
2
2
2
2
3
3
3
3
3
3
3
3
3
3
3
4
4
4
4
4
4
4
4
4
4
4
5
5
5
5
5
5
5
5
5
5
5
6
6
6
6
6
6
6
6
6
6
6
7
7
7
7
7
7
7
7
7
7
7
8
8
8
8
8
8
8
8
8
8
8
9
9
9
9
9
9
9
9
9
9
9
J0 1
31 1.0
J1 1
42 1.0
J2 1
53 1.0
J3 1
64 1.0
J4 1
75 1.0
J5 1
86 1.0
J6 1
97 1.0
J7 1
108 1.0
J8 1
119 1.0
J9 1
10 1.0
G0 120
0 -1000.0
1 -1010.0
2 -1020.0
3 -1030.0
4 -1040.0
5 -1050.0
6 -1060.0
7 -1070.0
8 -1080.0
9 -1090.0
10 -100.0
11 -1100.0
12 -1110.0
13 -1120.0
14 -1130.0
15 -1140.0
16 -1150.0
17 -1160.0
18 -1170.0
19 -1180.0
20 -1190.0
21 -110.0
22 -1200.0
23 -120.0
24 -130.0
25 -140.0
26 -150.0
27 -160.0
28 -170.0
29 -180.0
30 -190.0
31 -10.0
32 -200.0
33 -210.0
34 -220.0
35 -230.0
36 -240.0
37 -250.0
38 -260.0
39 -270.0
40 -280.0
41 -290.0
42 -20.0
43 -300.0
44 -310.0
45 -320.0
46 -330.0
47 -340.0
48 -350.0
49 -360.0
50 -370.0
51 -380.0
52 -390.0
53 -30.0
54 -400.0
55 -410.0
56 -420.0
57 -430.0
58 -440.0
59 -450.0
60 -460.0
61 -470.0
62 -480.0
63 -490.0
64 -40.0
65 -500.0
66 -510.0
67 -520.0
68 -530.0
69 -540.0
70 -550.0
71 -560.0
72 -570.0
73 -580.0
74 -590.0
75 -50.0
76 -600.0
77 -610.0
78 -620.0
79 -630.0
80 -640.0
81 -650.0
82 -660.0
83 -670.0
84 -680.0
85 -690.0
86 -60.0
87 -700.0
88 -710.0
89 -720.0
90 -730.0
91 -740.0
92 -750.0
93 -760.0
94 -770.0
95 -780.0
96 -790.0
97 -70.0
98 -800.0
99 -810.0
100 -820.0
101 -830.0
102 -840.0
103 -850.0
104 -860.0
105 -870.0
106 -880.0
107 -890.0
108 -80.0
109 -900.0
110 -910.0
111 -920.0
112 -930.0
113 -940.0
114 -950.0
115 -960.0
116 -970.0
117 -980.0
118 -990.0
119 -90.0
